c "110268.clq"
p edge 150 584
e 1 5
e 1 7
e 1 53
e 1 60
e 1 71
e 1 76
e 1 97
e 1 100
e 1 126
e 2 5
e 2 6
e 2 8
e 2 33
e 2 75
e 3 5
e 3 6
e 3 7
e 3 8
e 3 9
e 3 10
e 3 12
e 3 14
e 3 15
e 3 17
e 3 20
e 3 22
e 3 23
e 3 24
e 3 26
e 3 28
e 3 29
e 3 31
e 3 33
e 3 34
e 3 35
e 3 36
e 3 38
e 3 40
e 3 42
e 3 44
e 3 45
e 3 46
e 3 50
e 3 53
e 3 54
e 3 59
e 3 60
e 3 61
e 3 67
e 3 71
e 3 82
e 3 84
e 3 86
e 3 87
e 3 90
e 3 91
e 3 93
e 3 96
e 3 101
e 3 111
e 3 114
e 3 118
e 3 124
e 3 128
e 3 133
e 3 138
e 3 141
e 3 144
e 4 5
e 4 6
e 4 9
e 4 11
e 4 12
e 4 13
e 4 22
e 4 27
e 4 31
e 4 36
e 4 52
e 4 64
e 4 79
e 4 81
e 4 85
e 4 91
e 4 108
e 4 112
e 4 115
e 4 117
e 4 135
e 5 6
e 5 7
e 5 8
e 5 10
e 5 11
e 5 12
e 5 14
e 5 16
e 5 19
e 5 20
e 5 21
e 5 27
e 5 29
e 5 31
e 5 40
e 5 48
e 5 55
e 5 66
e 5 74
e 5 82
e 5 84
e 5 86
e 5 102
e 5 114
e 5 138
e 5 142
e 6 7
e 6 8
e 6 9
e 6 10
e 6 11
e 6 13
e 6 15
e 6 16
e 6 19
e 6 21
e 6 31
e 6 37
e 6 40
e 6 43
e 6 48
e 6 53
e 6 57
e 6 62
e 6 76
e 6 86
e 6 87
e 6 105
e 6 106
e 6 108
e 6 121
e 6 129
e 6 150
e 7 11
e 7 21
e 7 25
e 7 37
e 7 41
e 7 48
e 7 49
e 7 51
e 7 67
e 7 80
e 7 83
e 7 109
e 7 124
e 7 133
e 7 137
e 7 149
e 8 9
e 8 10
e 8 13
e 8 15
e 8 16
e 8 17
e 8 18
e 8 20
e 8 23
e 8 24
e 8 25
e 8 28
e 8 30
e 8 33
e 8 36
e 8 37
e 8 38
e 8 39
e 8 41
e 8 55
e 8 58
e 8 62
e 8 64
e 8 65
e 8 69
e 8 73
e 8 75
e 8 83
e 8 92
e 8 100
e 8 108
e 8 116
e 8 118
e 8 119
e 8 120
e 8 122
e 8 123
e 8 126
e 8 128
e 8 138
e 9 12
e 9 13
e 9 14
e 9 19
e 9 24
e 9 25
e 9 28
e 9 34
e 9 49
e 9 64
e 9 72
e 9 74
e 9 87
e 9 106
e 9 126
e 9 134
e 9 147
e 10 18
e 10 26
e 10 43
e 10 45
e 10 62
e 10 69
e 10 115
e 10 135
e 11 16
e 11 39
e 12 14
e 12 17
e 12 21
e 12 23
e 12 26
e 12 34
e 12 42
e 12 44
e 12 49
e 12 55
e 12 61
e 12 63
e 12 65
e 12 80
e 12 85
e 12 90
e 12 94
e 12 103
e 12 107
e 12 110
e 12 112
e 12 125
e 12 137
e 12 148
e 12 149
e 13 17
e 13 37
e 13 57
e 13 68
e 13 74
e 13 78
e 13 111
e 13 128
e 13 130
e 13 137
e 14 15
e 14 19
e 14 25
e 14 39
e 14 47
e 14 63
e 14 69
e 14 74
e 14 85
e 14 89
e 14 110
e 14 112
e 14 127
e 14 128
e 14 129
e 14 139
e 14 143
e 15 18
e 15 22
e 15 35
e 15 38
e 15 83
e 15 88
e 15 101
e 15 110
e 15 131
e 15 141
e 15 144
e 16 23
e 16 38
e 16 67
e 16 77
e 16 94
e 16 99
e 16 145
e 17 18
e 17 30
e 17 33
e 17 35
e 17 70
e 17 79
e 17 81
e 17 136
e 18 42
e 18 43
e 18 44
e 18 49
e 18 101
e 18 103
e 19 20
e 19 30
e 19 47
e 20 22
e 20 27
e 20 29
e 20 36
e 20 41
e 20 50
e 20 57
e 20 70
e 20 75
e 20 104
e 20 120
e 20 127
e 20 132
e 20 133
e 21 24
e 21 26
e 21 27
e 21 45
e 21 46
e 21 50
e 21 62
e 21 76
e 21 100
e 21 102
e 21 132
e 21 133
e 22 30
e 22 58
e 22 73
e 22 98
e 22 120
e 22 144
e 23 32
e 23 34
e 23 40
e 23 52
e 23 56
e 23 65
e 23 90
e 23 91
e 23 98
e 23 119
e 23 121
e 23 134
e 23 136
e 24 29
e 24 47
e 24 48
e 24 52
e 24 71
e 24 79
e 24 80
e 24 82
e 24 95
e 24 102
e 24 103
e 24 110
e 24 115
e 24 116
e 24 117
e 25 148
e 26 28
e 26 32
e 26 35
e 26 39
e 26 41
e 26 51
e 26 52
e 26 68
e 26 79
e 26 82
e 26 85
e 26 87
e 26 93
e 26 114
e 26 131
e 26 139
e 26 142
e 27 32
e 27 43
e 27 139
e 28 45
e 28 51
e 28 54
e 28 56
e 28 61
e 28 104
e 28 121
e 29 32
e 29 50
e 30 56
e 30 89
e 31 46
e 31 66
e 31 73
e 31 77
e 31 104
e 32 59
e 32 95
e 33 46
e 33 58
e 33 148
e 34 44
e 34 68
e 34 94
e 34 108
e 34 130
e 35 57
e 35 72
e 35 88
e 35 97
e 36 90
e 36 130
e 36 137
e 37 73
e 37 76
e 37 80
e 38 60
e 38 83
e 38 119
e 39 63
e 39 68
e 39 86
e 39 95
e 40 42
e 40 56
e 40 66
e 40 78
e 40 99
e 40 118
e 40 142
e 41 67
e 41 138
e 41 143
e 42 47
e 42 55
e 42 59
e 42 69
e 42 72
e 42 96
e 42 113
e 42 136
e 42 140
e 42 145
e 43 51
e 43 71
e 43 78
e 43 96
e 43 103
e 43 107
e 43 147
e 44 97
e 45 66
e 45 113
e 45 123
e 45 135
e 45 143
e 47 61
e 47 77
e 47 84
e 47 109
e 47 149
e 48 53
e 48 64
e 48 144
e 49 54
e 49 70
e 50 131
e 51 54
e 51 105
e 51 135
e 51 140
e 52 59
e 52 60
e 52 109
e 52 123
e 52 134
e 53 58
e 53 116
e 54 121
e 55 72
e 56 98
e 56 122
e 57 81
e 57 92
e 57 126
e 58 65
e 58 150
e 59 99
e 60 63
e 60 88
e 60 105
e 60 129
e 61 149
e 62 94
e 62 102
e 62 117
e 63 89
e 63 113
e 63 123
e 63 125
e 63 131
e 64 92
e 64 104
e 64 124
e 64 140
e 65 70
e 66 101
e 66 112
e 66 119
e 66 125
e 66 132
e 66 146
e 67 77
e 67 106
e 67 120
e 67 127
e 67 132
e 68 91
e 68 122
e 69 92
e 69 98
e 69 118
e 69 134
e 70 107
e 70 124
e 72 129
e 73 75
e 73 78
e 73 93
e 73 127
e 73 147
e 73 148
e 74 88
e 74 109
e 74 141
e 75 125
e 76 100
e 76 105
e 76 111
e 76 117
e 79 84
e 79 93
e 79 96
e 79 106
e 79 115
e 79 145
e 80 81
e 83 136
e 85 89
e 85 111
e 86 97
e 87 113
e 89 95
e 90 114
e 92 99
e 92 107
e 96 143
e 96 146
e 104 116
e 105 145
e 106 146
e 111 122
e 111 130
e 116 139
e 117 150
e 122 140
e 122 142
e 122 146
e 133 141
e 141 147
e 147 150
